1 135 125 15 179 10 70 88 90 110 50 134 66 87 152 150 114 197 106 41 159 24 116 93 4 30 123 138 57 105 122 155 59 6 194 16 26 140 190 174 89 136 132 124 47 141 160 81 55 113 28 91 163 107 23 172 36 178 181 188 3 37 76 65 34 137 196 139 167 147 170 5 111 180 109 94 78 14 118 77 80 33 92 171 2 72 62 68 133 46 195 100 112 39 166 54 101 35 108 38 0 11 151 43 103 61 48 58 32 144 165 42 153 51 193 120 69 191 192 95 75 25 7 49 86 13 18 40 22 162 184 177 169 20 142 17 187 60 145 186 67 19 121 53 99 168 71 185 83 29 12 52 115 82 127 98 102 161 8 176 189 45 146 173 97 104 158 183 9 154 148 21 128 199 198 130 126 175 131 74 79 96 156 44 182 85 63 56 117 143 119 27 64 164 31 129 73 149 84 157 

